p cnf 20 35
-18 20 11 0
18 4 9 0
-11 -19 -5 0
8 -1 16 0
8 -2 -17 0
3 -1 -5 0
-7 6 4 0
7 6 -10 0
4 -12 4 0
4 12 -9 0
-11 -7 8 0
-8 -10 -6 0
-14 -14 -8 0
-16 -20 14 0
16 5 -15 0
-13 -12 13 0
20 -4 19 0
15 -10 18 0
-12 3 5 0
-7 7 -13 0
-9 5 -17 0
18 -9 -16 0
7 -5 -4 0
-1 -5 10 0
1 3 -9 0
-2 19 17 0
-9 -13 -11 0
17 5 18 0
17 20 8 0
9 -16 -9 0
-12 4 -8 0
-1 3 1 0
-16 14 -4 0
4 -13 9 0
9 8 15 0
